0 0 0 0
0 1 0 0
0 2 0 0
0 3 2 0
0 4 0 1
0 5 2 8
0 6 0 5
0 7 0 9
0 8 2 9
0 9 0 13
0 10 1 14
0 11 0 17
0 12 2 5
0 13 2 5
0 14 1 1
0 15 2 21
0 16 0 11
0 17 0 17
0 18 2 12
0 19 2 15
0 20 0 18
0 21 1 13
0 22 2 21
0 23 2 20
0 24 2 24
0 25 2 30
0 26 0 31
0 27 1 30
0 28 2 21
0 29 0 37
0 30 0 32
0 31 0 38
